4 
5  26 46 
6  04 19 32 47 
7  02 17 32 47 
8  02 17 32 47 
9  02 18 32 47 
10  02 17 32 46 
11  01 16 31 46 
12  01 16 31 46 
13  01 16 31 46 
14  01 16 31 46 
15  01 16 31 46 
16  01 16 31 46 
17  01 16 31 46 
18  01 16 31 47 
19  02 17 32 47 
20  02 17 32 47 
21  02 20 35 47 
22  02 17 32 51 
23  05 20 
0 
